p cnf 50 70
42 -48 -27 0
-17 48 4 0
-38 -16 23 0
38 48 42 0
-32 -4 -42 0
10 15 -39 0
43 -16 -46 0
-24 -42 50 0
46 -48 37 0
45 22 -4 0
7 -41 37 0
46 13 -27 0
6 -27 -26 0
-32 -47 -36 0
-6 -46 48 0
-11 -1 -44 0
17 18 -26 0
-28 40 49 0
26 -35 3 0
-49 27 26 0
11 21 23 0
26 -5 -45 0
20 8 43 0
41 39 50 0
23 -4 -14 0
36 45 -21 0
-34 -33 -18 0
50 -43 -14 0
38 46 -48 0
-6 -37 50 0
4 36 11 0
34 -22 37 0
20 8 30 0
30 41 39 0
-39 45 34 0
-14 18 -8 0
8 -12 24 0
-49 27 5 0
42 6 -29 0
5 30 46 0
29 19 31 0
-26 46 -48 0
37 16 -29 0
34 -50 29 0
41 -36 1 0
4 -43 48 0
-32 -43 39 0
-43 48 32 0
25 -22 13 0
26 9 42 0
x 1 2 3 6 -7 9 -11 -12 15 -16 -22 23 -26 28 -31 32 -34 35 37 -38 -39 40 43 -44 46 -47 -50 0
x -5 -6 -9 -13 -18 19 -20 -22 23 -24 -25 -27 -28 30 -31 -32 -35 -36 42 -43 44 45 48 -49 0
x -1 2 -4 5 6 7 8 -11 13 14 16 -18 21 22 25 26 -28 -34 37 -39 41 42 43 45 46 48 49 50 0
x 1 4 7 8 -9 -10 -13 16 -25 -27 -28 -30 -31 32 -34 37 38 41 45 46 -48 49 -50 0
x -5 7 10 11 16 -22 23 -24 25 -26 -28 -29 -31 32 33 35 -36 -37 -43 -45 -46 50 0
x 1 -2 5 6 8 -10 -12 15 17 -20 -21 22 -26 -27 -28 29 -31 -33 -36 -39 43 -44 45 -47 -49 0
x 2 3 5 -6 -7 9 -10 -11 14 16 18 -20 22 23 25 26 -27 28 -29 30 -33 34 -41 -43 44 -45 46 -47 -49 0
x -2 -3 4 7 8 -9 10 11 -12 13 15 16 20 21 -24 -25 -27 28 30 -32 33 -34 -38 -39 40 -41 -43 -46 -47 -49 0
x -7 -8 -13 -14 22 -23 24 25 -26 -27 29 32 35 36 -37 38 41 43 -49 0
x 3 -4 5 7 8 9 -13 14 -15 -17 -18 21 -22 -24 -25 26 28 -29 30 -34 -36 37 40 42 44 45 -47 48 49 0
x 1 -2 3 -4 -5 10 11 16 18 -19 -21 -22 25 -26 -27 31 33 -37 -38 44 45 46 -49 0
x -2 4 -5 -7 -8 -10 -11 13 -17 18 19 -20 21 -22 23 -24 25 -27 -29 31 -32 34 -35 -36 -38 39 -40 41 -42 -44 0
x -7 9 -11 13 14 -19 20 22 -24 30 32 34 36 37 38 40 42 -46 -48 -50 0
x 2 -3 5 8 -10 -11 12 -14 15 16 -17 19 -23 -25 26 -29 32 35 37 38 40 41 47 -48 0
x 1 4 -5 -6 -7 13 15 -18 20 23 -26 -28 -29 30 -34 -37 -38 39 44 -45 47 0
x 3 -5 -6 11 12 -14 -20 -24 27 -28 31 32 33 34 39 41 43 -44 45 0
x -1 -2 5 -6 -7 8 -10 16 19 -20 25 27 29 30 -32 34 -36 40 -41 -45 -47 49 50 0
x 5 8 9 11 13 -15 -17 -18 20 -22 23 25 27 -35 -42 -43 -49 -50 0
x 1 -3 5 6 7 -10 15 18 20 21 -22 23 25 -26 28 29 31 -35 40 -41 43 48 49 -50 0
x 1 9 10 11 16 -18 -19 -20 -21 -22 -23 -24 25 26 27 -29 -30 -31 32 -33 -34 35 -36 38 -39 -41 42 -44 -45 46 -49 -50 0
